letting maxWeight=64
letting values=[4, 62, 17, 21, 44, 47, 55, 51, 23, 45, 41, 47, 12, 28, 58, 6, 15, 61, 14, 56, 1, 22, 29, 29, 36, 12, 14, 12, 62, 12, 10, 61, 14, 45, 2, 26, 3, 41, 28, 54, 4, 19, 41, 61, 45, 31, 59, 12, 47, 15, 35, 45, 55, 29, 23, 16, 29, 9, 24, 36, 59, 61, 23, 22, 27, 17, 34, 44, 37, 17, 23]
letting weights=[18, 8, 9, 9, 11, 21, 7, 8, 21, 4, 8, 6, 13, 8, 16, 15, 8, 16, 12, 10, 18, 15, 12, 20, 17, 14, 21, 3, 8, 22, 16, 22, 22, 2, 22, 17, 21, 22, 6, 17, 14, 10, 9, 12, 6, 3, 5, 6, 21, 15, 3, 10, 11, 8, 8, 2, 13, 9, 17, 13, 20, 7, 2, 8, 16, 2, 13, 9, 3, 13, 20]
